(set-logic QF_S)
(declare-fun var0 () Int)
(declare-fun var1 () String)
(declare-fun var2 () Int)
(declare-fun var3 () Int)
(declare-fun var4 () String)
(declare-fun var5 () String)
(declare-fun var6 () Int)
(declare-fun var7 () String)
(assert (< var0 178))
(assert (str.contains (str.substr var1 var2 var3) (str.at var4 190)))
(assert (> (str.to.int (str.substr var5 var6 var3)) (str.len (str.replace var7 var5 var7))))
(assert (not (< var3 var6)))
(check-sat)